c preprocessed version of pr76.tsp, 73 vertices, 210 edges
p td 73 210
1 0
0 13
0 12
0 29
0 28
0 51
66 0
1 2
1 3
1 8
1 12
3 2
8 2
2 5
2 7
3 4
3 44
3 5
5 4
6 4
4 44
4 43
4 40
4 22
5 6
5 7
7 6
20 6
21 6
6 22
8 7
9 7
7 20
8 9
8 69
8 11
8 12
10 9
69 9
9 20
9 19
9 18
11 10
10 69
10 18
10 17
12 11
11 69
11 17
13 12
12 17
12 15
12 14
13 14
13 29
14 15
14 29
15 16
15 17
15 27
15 29
15 28
17 16
16 18
16 19
16 26
16 27
17 18
18 19
19 20
19 25
19 26
20 21
20 25
21 22
21 23
21 68
21 25
23 22
22 40
22 39
24 23
68 23
23 39
23 38
23 37
25 24
24 68
24 37
24 36
26 25
33 25
25 68
25 36
27 26
30 26
26 33
31 26
32 26
28 27
27 30
29 28
28 30
31 28
66 28
31 30
31 32
31 66
32 33
32 34
32 66
33 34
33 36
34 35
34 36
34 50
34 51
66 34
36 35
35 37
35 38
35 49
35 50
36 37
37 38
38 39
38 48
38 49
39 40
39 41
39 48
41 40
40 43
40 42
41 42
41 46
41 67
41 48
43 42
46 42
42 44
42 45
43 44
45 44
63 44
46 45
62 45
45 63
47 46
67 46
46 62
46 61
48 47
47 67
47 61
47 59
49 48
60 48
48 67
48 59
50 49
52 49
49 60
53 49
54 49
51 50
50 52
51 52
66 51
53 51
65 51
53 52
53 54
53 65
54 55
54 60
54 65
55 56
60 55
55 58
55 59
55 57
65 55
56 57
56 64
65 56
58 57
57 63
57 64
59 58
58 61
58 62
58 63
60 59
59 61
61 62
62 63
64 63
70 71
70 56
70 63
70 64
70 72
71 72
71 0
71 51
71 56
71 65
72 44
72 63
